31
0	0
1	159
2	0
3	0
4	169
5	405
6	500
7	614
8	509
9	395
10	0
11	409
12	498
13	166
14	526
15	718
16	504
17	512
18	581
19	397
20	585
21	593
22	589
23	169
24	507
25	510
26	595
27	597
28	348
29	452
30	720
